22348
1 0 1 0 0 1 1 1 0 0 0 1 0 0 1 0 0 1 0 0 1 1 0 0 0 0 0 0 0 0 
6 5 6 2 6 5 2 5 2 17 5 2 2 17 17 2 17 17 5 17 2 17 5 17 5 2 2 5 5 5 5 5 6 5 20 20 5 5 17 2 5 20 5 20 5 2 20 20 7 20 7 7 7 7 20 20 7 7 7 20 0 0 20 0 0 0 0 0 0 0 20 6 0 0 0 20 0 20 7 0 20 7 20 0 7 0 0 7 20 0 0 0 7 0 0 7 20 20 21 20 20 20 14 14 14 14 14 14 14 14 14 14 14 11 11 21 11 11 11 11 11 20 11 20 20 11 11 11 11 21 11 11 11 21 20 14 11 11 20 11 11 14 14 14 14 11 11 11 14 11 
